29911.31,43.67,48.09
27995.98,46.66,51.38
30274.29,43.15,47.51
25436.76,51.35,56.55
30271.91,43.15,47.52
21394.37,61.05,67.23
26835.63,48.67,53.6
26888.62,48.58,53.5
29219.02,44.7,49.23
24911.3,52.43,57.74
30230.64,43.21,47.58
28964.3,45.1,49.66
28731.81,45.46,50.06
27489.39,47.52,52.33
25539.67,51.14,56.32
28569.79,45.72,50.35
29217.77,44.71,49.23
28487.35,45.85,50.49
25854.63,50.52,55.64
25728.93,50.77,55.91
